9002
1395
7578
29

38 27 

9
51 17 15 22 14 35 4 
62 28 23 57 63 7 39 
43 49 5 32 21 18 29 55 
46 64 6 26 31 34 47 
11 54 48 12 13 24 52 19 1 33 
25 8 59 44 56 
30 37 60 2 42 61 45 
9 3 36 50 16 41 
20 58 40 10 53 


